FourierSAT_Github_AIJ/benchmarks/MAXSAT_benchmarks/random/1/abrame-habet/v220/s2v220c1800-3.cnf
c Generated after 1 tries
c Graph with 220 nodes and 900 edges, Max edges:24090
c generated from an undirected graph
c to solve unweighted MaxCut
p cnf 220 1800
1 5 0
-1 -5 0
1 10 0
-1 -10 0
1 32 0
-1 -32 0
1 56 0
-1 -56 0
1 67 0
-1 -67 0
1 81 0
-1 -81 0
1 176 0
-1 -176 0
1 192 0
-1 -192 0
2 61 0
-2 -61 0
2 76 0
-2 -76 0
2 139 0
-2 -139 0
2 150 0
-2 -150 0
2 158 0
-2 -158 0
2 176 0
-2 -176 0
2 218 0
-2 -218 0
2 219 0
-2 -219 0
3 29 0
-3 -29 0
3 36 0
-3 -36 0
3 86 0
-3 -86 0
3 91 0
-3 -91 0
3 106 0
-3 -106 0
3 119 0
-3 -119 0
3 150 0
-3 -150 0
4 14 0
-4 -14 0
4 35 0
-4 -35 0
4 44 0
-4 -44 0
4 49 0
-4 -49 0
4 87 0
-4 -87 0
4 103 0
-4 -103 0
4 116 0
-4 -116 0
4 139 0
-4 -139 0
4 148 0
-4 -148 0
4 192 0
-4 -192 0
5 92 0
-5 -92 0
5 126 0
-5 -126 0
5 184 0
-5 -184 0
5 205 0
-5 -205 0
5 217 0
-5 -217 0
6 8 0
-6 -8 0
6 20 0
-6 -20 0
6 24 0
-6 -24 0
6 35 0
-6 -35 0
6 44 0
-6 -44 0
6 58 0
-6 -58 0
6 61 0
-6 -61 0
6 62 0
-6 -62 0
6 105 0
-6 -105 0
6 177 0
-6 -177 0
7 107 0
-7 -107 0
7 127 0
-7 -127 0
7 144 0
-7 -144 0
7 152 0
-7 -152 0
7 163 0
-7 -163 0
7 166 0
-7 -166 0
7 201 0
-7 -201 0
7 219 0
-7 -219 0
8 21 0
-8 -21 0
8 40 0
-8 -40 0
8 78 0
-8 -78 0
8 94 0
-8 -94 0
8 148 0
-8 -148 0
8 160 0
-8 -160 0
8 176 0
-8 -176 0
9 29 0
-9 -29 0
9 31 0
-9 -31 0
9 142 0
-9 -142 0
9 144 0
-9 -144 0
9 184 0
-9 -184 0
10 16 0
-10 -16 0
10 46 0
-10 -46 0
10 55 0
-10 -55 0
10 85 0
-10 -85 0
10 201 0
-10 -201 0
10 203 0
-10 -203 0
10 220 0
-10 -220 0
11 12 0
-11 -12 0
11 36 0
-11 -36 0
11 123 0
-11 -123 0
11 147 0
-11 -147 0
11 155 0
-11 -155 0
11 160 0
-11 -160 0
11 168 0
-11 -168 0
12 93 0
-12 -93 0
12 136 0
-12 -136 0
12 158 0
-12 -158 0
12 170 0
-12 -170 0
12 179 0
-12 -179 0
12 214 0
-12 -214 0
13 26 0
-13 -26 0
13 43 0
-13 -43 0
13 59 0
-13 -59 0
13 67 0
-13 -67 0
13 91 0
-13 -91 0
13 97 0
-13 -97 0
13 112 0
-13 -112 0
13 146 0
-13 -146 0
13 172 0
-13 -172 0
13 177 0
-13 -177 0
14 75 0
-14 -75 0
14 113 0
-14 -113 0
14 122 0
-14 -122 0
14 133 0
-14 -133 0
14 156 0
-14 -156 0
14 168 0
-14 -168 0
14 191 0
-14 -191 0
14 220 0
-14 -220 0
15 25 0
-15 -25 0
15 80 0
-15 -80 0
15 84 0
-15 -84 0
15 89 0
-15 -89 0
15 137 0
-15 -137 0
15 214 0
-15 -214 0
16 53 0
-16 -53 0
16 68 0
-16 -68 0
16 88 0
-16 -88 0
16 99 0
-16 -99 0
16 103 0
-16 -103 0
16 186 0
-16 -186 0
17 34 0
-17 -34 0
17 43 0
-17 -43 0
17 46 0
-17 -46 0
17 54 0
-17 -54 0
17 65 0
-17 -65 0
17 73 0
-17 -73 0
17 138 0
-17 -138 0
17 159 0
-17 -159 0
17 199 0
-17 -199 0
17 210 0
-17 -210 0
18 22 0
-18 -22 0
18 28 0
-18 -28 0
18 60 0
-18 -60 0
18 103 0
-18 -103 0
18 135 0
-18 -135 0
18 147 0
-18 -147 0
18 151 0
-18 -151 0
19 35 0
-19 -35 0
19 47 0
-19 -47 0
19 90 0
-19 -90 0
19 116 0
-19 -116 0
19 118 0
-19 -118 0
19 154 0
-19 -154 0
19 191 0
-19 -191 0
19 206 0
-19 -206 0
19 219 0
-19 -219 0
20 45 0
-20 -45 0
20 66 0
-20 -66 0
20 97 0
-20 -97 0
20 164 0
-20 -164 0
20 176 0
-20 -176 0
20 200 0
-20 -200 0
21 23 0
-21 -23 0
21 28 0
-21 -28 0
21 43 0
-21 -43 0
21 49 0
-21 -49 0
21 78 0
-21 -78 0
21 86 0
-21 -86 0
21 147 0
-21 -147 0
21 195 0
-21 -195 0
21 196 0
-21 -196 0
21 200 0
-21 -200 0
22 53 0
-22 -53 0
22 101 0
-22 -101 0
22 111 0
-22 -111 0
22 140 0
-22 -140 0
22 149 0
-22 -149 0
22 155 0
-22 -155 0
22 161 0
-22 -161 0
22 184 0
-22 -184 0
22 195 0
-22 -195 0
22 213 0
-22 -213 0
23 59 0
-23 -59 0
23 91 0
-23 -91 0
23 112 0
-23 -112 0
23 123 0
-23 -123 0
23 153 0
-23 -153 0
23 179 0
-23 -179 0
23 186 0
-23 -186 0
24 32 0
-24 -32 0
24 73 0
-24 -73 0
24 147 0
-24 -147 0
24 219 0
-24 -219 0
25 28 0
-25 -28 0
25 95 0
-25 -95 0
25 110 0
-25 -110 0
25 127 0
-25 -127 0
25 139 0
-25 -139 0
25 152 0
-25 -152 0
26 98 0
-26 -98 0
26 132 0
-26 -132 0
26 213 0
-26 -213 0
26 215 0
-26 -215 0
27 55 0
-27 -55 0
27 76 0
-27 -76 0
27 152 0
-27 -152 0
27 162 0
-27 -162 0
27 190 0
-27 -190 0
27 195 0
-27 -195 0
27 196 0
-27 -196 0
28 41 0
-28 -41 0
28 89 0
-28 -89 0
28 100 0
-28 -100 0
28 116 0
-28 -116 0
28 118 0
-28 -118 0
28 137 0
-28 -137 0
28 152 0
-28 -152 0
28 166 0
-28 -166 0
28 179 0
-28 -179 0
28 186 0
-28 -186 0
28 189 0
-28 -189 0
29 32 0
-29 -32 0
29 36 0
-29 -36 0
29 48 0
-29 -48 0
29 57 0
-29 -57 0
29 58 0
-29 -58 0
29 95 0
-29 -95 0
29 139 0
-29 -139 0
29 181 0
-29 -181 0
29 189 0
-29 -189 0
30 52 0
-30 -52 0
30 122 0
-30 -122 0
30 128 0
-30 -128 0
30 140 0
-30 -140 0
30 172 0
-30 -172 0
31 96 0
-31 -96 0
31 113 0
-31 -113 0
31 211 0
-31 -211 0
31 215 0
-31 -215 0
32 47 0
-32 -47 0
32 77 0
-32 -77 0
32 83 0
-32 -83 0
32 109 0
-32 -109 0
32 112 0
-32 -112 0
32 119 0
-32 -119 0
32 151 0
-32 -151 0
32 153 0
-32 -153 0
32 212 0
-32 -212 0
32 217 0
-32 -217 0
33 96 0
-33 -96 0
33 111 0
-33 -111 0
33 194 0
-33 -194 0
34 35 0
-34 -35 0
34 57 0
-34 -57 0
34 58 0
-34 -58 0
34 99 0
-34 -99 0
34 205 0
-34 -205 0
35 105 0
-35 -105 0
35 126 0
-35 -126 0
35 135 0
-35 -135 0
35 137 0
-35 -137 0
35 171 0
-35 -171 0
35 173 0
-35 -173 0
36 90 0
-36 -90 0
36 115 0
-36 -115 0
36 154 0
-36 -154 0
36 161 0
-36 -161 0
36 176 0
-36 -176 0
36 200 0
-36 -200 0
37 65 0
-37 -65 0
37 66 0
-37 -66 0
37 87 0
-37 -87 0
37 130 0
-37 -130 0
37 133 0
-37 -133 0
37 134 0
-37 -134 0
37 161 0
-37 -161 0
38 90 0
-38 -90 0
38 117 0
-38 -117 0
38 199 0
-38 -199 0
39 41 0
-39 -41 0
39 59 0
-39 -59 0
39 89 0
-39 -89 0
39 131 0
-39 -131 0
39 160 0
-39 -160 0
39 188 0
-39 -188 0
39 194 0
-39 -194 0
39 207 0
-39 -207 0
39 210 0
-39 -210 0
40 43 0
-40 -43 0
40 69 0
-40 -69 0
40 90 0
-40 -90 0
40 117 0
-40 -117 0
40 137 0
-40 -137 0
41 46 0
-41 -46 0
41 61 0
-41 -61 0
42 51 0
-42 -51 0
42 63 0
-42 -63 0
42 69 0
-42 -69 0
42 80 0
-42 -80 0
42 123 0
-42 -123 0
42 140 0
-42 -140 0
42 153 0
-42 -153 0
42 182 0
-42 -182 0
42 190 0
-42 -190 0
43 85 0
-43 -85 0
43 100 0
-43 -100 0
43 138 0
-43 -138 0
43 141 0
-43 -141 0
43 151 0
-43 -151 0
43 154 0
-43 -154 0
43 194 0
-43 -194 0
43 205 0
-43 -205 0
43 206 0
-43 -206 0
44 92 0
-44 -92 0
44 191 0
-44 -191 0
44 219 0
-44 -219 0
45 54 0
-45 -54 0
45 69 0
-45 -69 0
45 79 0
-45 -79 0
45 82 0
-45 -82 0
45 88 0
-45 -88 0
45 186 0
-45 -186 0
45 188 0
-45 -188 0
46 98 0
-46 -98 0
46 129 0
-46 -129 0
46 130 0
-46 -130 0
46 138 0
-46 -138 0
46 148 0
-46 -148 0
46 214 0
-46 -214 0
47 68 0
-47 -68 0
48 58 0
-48 -58 0
48 78 0
-48 -78 0
48 186 0
-48 -186 0
48 187 0
-48 -187 0
49 61 0
-49 -61 0
49 79 0
-49 -79 0
49 86 0
-49 -86 0
49 91 0
-49 -91 0
49 126 0
-49 -126 0
49 135 0
-49 -135 0
49 162 0
-49 -162 0
49 166 0
-49 -166 0
49 174 0
-49 -174 0
49 218 0
-49 -218 0
50 101 0
-50 -101 0
50 119 0
-50 -119 0
50 160 0
-50 -160 0
50 177 0
-50 -177 0
50 184 0
-50 -184 0
51 53 0
-51 -53 0
51 67 0
-51 -67 0
51 100 0
-51 -100 0
51 117 0
-51 -117 0
51 137 0
-51 -137 0
51 141 0
-51 -141 0
51 156 0
-51 -156 0
52 170 0
-52 -170 0
52 187 0
-52 -187 0
52 204 0
-52 -204 0
53 68 0
-53 -68 0
53 106 0
-53 -106 0
53 126 0
-53 -126 0
53 129 0
-53 -129 0
53 152 0
-53 -152 0
53 183 0
-53 -183 0
54 59 0
-54 -59 0
54 62 0
-54 -62 0
54 70 0
-54 -70 0
54 99 0
-54 -99 0
55 128 0
-55 -128 0
55 138 0
-55 -138 0
56 65 0
-56 -65 0
56 83 0
-56 -83 0
56 98 0
-56 -98 0
56 108 0
-56 -108 0
56 153 0
-56 -153 0
56 157 0
-56 -157 0
56 160 0
-56 -160 0
56 198 0
-56 -198 0
56 202 0
-56 -202 0
57 86 0
-57 -86 0
57 126 0
-57 -126 0
57 133 0
-57 -133 0
57 180 0
-57 -180 0
57 190 0
-57 -190 0
57 210 0
-57 -210 0
58 80 0
-58 -80 0
58 117 0
-58 -117 0
58 138 0
-58 -138 0
58 141 0
-58 -141 0
58 147 0
-58 -147 0
58 153 0
-58 -153 0
58 175 0
-58 -175 0
58 187 0
-58 -187 0
59 71 0
-59 -71 0
59 148 0
-59 -148 0
59 167 0
-59 -167 0
60 69 0
-60 -69 0
60 72 0
-60 -72 0
60 73 0
-60 -73 0
60 84 0
-60 -84 0
60 97 0
-60 -97 0
60 105 0
-60 -105 0
60 124 0
-60 -124 0
60 130 0
-60 -130 0
60 181 0
-60 -181 0
61 75 0
-61 -75 0
61 85 0
-61 -85 0
61 90 0
-61 -90 0
61 137 0
-61 -137 0
61 212 0
-61 -212 0
61 213 0
-61 -213 0
62 163 0
-62 -163 0
62 171 0
-62 -171 0
63 67 0
-63 -67 0
63 119 0
-63 -119 0
63 181 0
-63 -181 0
64 169 0
-64 -169 0
64 174 0
-64 -174 0
64 189 0
-64 -189 0
64 205 0
-64 -205 0
64 207 0
-64 -207 0
65 76 0
-65 -76 0
65 85 0
-65 -85 0
65 124 0
-65 -124 0
65 136 0
-65 -136 0
65 177 0
-65 -177 0
65 180 0
-65 -180 0
65 208 0
-65 -208 0
66 79 0
-66 -79 0
66 81 0
-66 -81 0
66 107 0
-66 -107 0
66 123 0
-66 -123 0
66 187 0
-66 -187 0
66 193 0
-66 -193 0
66 203 0
-66 -203 0
67 69 0
-67 -69 0
67 82 0
-67 -82 0
67 90 0
-67 -90 0
67 95 0
-67 -95 0
67 183 0
-67 -183 0
68 87 0
-68 -87 0
68 95 0
-68 -95 0
68 105 0
-68 -105 0
68 168 0
-68 -168 0
68 184 0
-68 -184 0
68 199 0
-68 -199 0
68 214 0
-68 -214 0
68 216 0
-68 -216 0
69 95 0
-69 -95 0
69 101 0
-69 -101 0
69 161 0
-69 -161 0
69 163 0
-69 -163 0
69 174 0
-69 -174 0
69 186 0
-69 -186 0
70 71 0
-70 -71 0
70 74 0
-70 -74 0
70 96 0
-70 -96 0
70 103 0
-70 -103 0
70 104 0
-70 -104 0
70 120 0
-70 -120 0
70 143 0
-70 -143 0
70 204 0
-70 -204 0
70 215 0
-70 -215 0
71 92 0
-71 -92 0
71 108 0
-71 -108 0
71 122 0
-71 -122 0
71 145 0
-71 -145 0
71 164 0
-71 -164 0
71 186 0
-71 -186 0
72 107 0
-72 -107 0
72 117 0
-72 -117 0
72 123 0
-72 -123 0
72 212 0
-72 -212 0
73 83 0
-73 -83 0
73 91 0
-73 -91 0
73 100 0
-73 -100 0
73 108 0
-73 -108 0
73 121 0
-73 -121 0
73 153 0
-73 -153 0
73 164 0
-73 -164 0
74 83 0
-74 -83 0
74 90 0
-74 -90 0
74 114 0
-74 -114 0
74 115 0
-74 -115 0
74 173 0
-74 -173 0
74 210 0
-74 -210 0
75 80 0
-75 -80 0
75 124 0
-75 -124 0
75 126 0
-75 -126 0
75 170 0
-75 -170 0
75 183 0
-75 -183 0
76 114 0
-76 -114 0
76 148 0
-76 -148 0
76 161 0
-76 -161 0
76 183 0
-76 -183 0
76 211 0
-76 -211 0
76 219 0
-76 -219 0
77 80 0
-77 -80 0
77 95 0
-77 -95 0
77 102 0
-77 -102 0
77 126 0
-77 -126 0
77 143 0
-77 -143 0
77 182 0
-77 -182 0
77 206 0
-77 -206 0
78 83 0
-78 -83 0
78 164 0
-78 -164 0
78 178 0
-78 -178 0
78 199 0
-78 -199 0
79 167 0
-79 -167 0
79 198 0
-79 -198 0
79 212 0
-79 -212 0
80 92 0
-80 -92 0
80 132 0
-80 -132 0
80 143 0
-80 -143 0
80 164 0
-80 -164 0
80 168 0
-80 -168 0
80 181 0
-80 -181 0
80 189 0
-80 -189 0
80 210 0
-80 -210 0
81 98 0
-81 -98 0
81 113 0
-81 -113 0
81 127 0
-81 -127 0
81 154 0
-81 -154 0
81 155 0
-81 -155 0
81 172 0
-81 -172 0
81 177 0
-81 -177 0
81 183 0
-81 -183 0
82 85 0
-82 -85 0
82 117 0
-82 -117 0
82 129 0
-82 -129 0
82 140 0
-82 -140 0
82 161 0
-82 -161 0
82 173 0
-82 -173 0
82 181 0
-82 -181 0
82 190 0
-82 -190 0
82 203 0
-82 -203 0
83 104 0
-83 -104 0
83 108 0
-83 -108 0
83 118 0
-83 -118 0
83 147 0
-83 -147 0
83 156 0
-83 -156 0
83 164 0
-83 -164 0
83 169 0
-83 -169 0
83 210 0
-83 -210 0
84 141 0
-84 -141 0
84 162 0
-84 -162 0
84 181 0
-84 -181 0
84 202 0
-84 -202 0
84 205 0
-84 -205 0
85 148 0
-85 -148 0
86 117 0
-86 -117 0
86 118 0
-86 -118 0
86 137 0
-86 -137 0
86 182 0
-86 -182 0
87 92 0
-87 -92 0
87 116 0
-87 -116 0
87 121 0
-87 -121 0
87 198 0
-87 -198 0
87 199 0
-87 -199 0
87 218 0
-87 -218 0
88 114 0
-88 -114 0
88 193 0
-88 -193 0
88 209 0
-88 -209 0
89 150 0
-89 -150 0
89 171 0
-89 -171 0
89 183 0
-89 -183 0
89 219 0
-89 -219 0
90 132 0
-90 -132 0
91 96 0
-91 -96 0
91 129 0
-91 -129 0
91 166 0
-91 -166 0
91 169 0
-91 -169 0
91 201 0
-91 -201 0
91 204 0
-91 -204 0
92 147 0
-92 -147 0
92 148 0
-92 -148 0
92 157 0
-92 -157 0
92 192 0
-92 -192 0
92 193 0
-92 -193 0
92 201 0
-92 -201 0
92 205 0
-92 -205 0
93 96 0
-93 -96 0
93 121 0
-93 -121 0
93 144 0
-93 -144 0
93 146 0
-93 -146 0
93 169 0
-93 -169 0
93 172 0
-93 -172 0
93 188 0
-93 -188 0
93 191 0
-93 -191 0
94 154 0
-94 -154 0
94 156 0
-94 -156 0
94 172 0
-94 -172 0
94 186 0
-94 -186 0
94 196 0
-94 -196 0
94 211 0
-94 -211 0
95 114 0
-95 -114 0
95 124 0
-95 -124 0
95 152 0
-95 -152 0
95 154 0
-95 -154 0
95 174 0
-95 -174 0
95 194 0
-95 -194 0
96 125 0
-96 -125 0
96 131 0
-96 -131 0
96 173 0
-96 -173 0
96 200 0
-96 -200 0
96 217 0
-96 -217 0
97 119 0
-97 -119 0
97 153 0
-97 -153 0
97 180 0
-97 -180 0
97 196 0
-97 -196 0
97 214 0
-97 -214 0
98 106 0
-98 -106 0
98 126 0
-98 -126 0
98 159 0
-98 -159 0
99 107 0
-99 -107 0
100 130 0
-100 -130 0
100 131 0
-100 -131 0
100 133 0
-100 -133 0
100 137 0
-100 -137 0
100 151 0
-100 -151 0
100 193 0
-100 -193 0
100 205 0
-100 -205 0
100 209 0
-100 -209 0
101 213 0
-101 -213 0
102 130 0
-102 -130 0
102 137 0
-102 -137 0
102 178 0
-102 -178 0
102 179 0
-102 -179 0
102 204 0
-102 -204 0
103 104 0
-103 -104 0
103 131 0
-103 -131 0
103 133 0
-103 -133 0
103 143 0
-103 -143 0
103 159 0
-103 -159 0
103 162 0
-103 -162 0
103 188 0
-103 -188 0
103 194 0
-103 -194 0
103 201 0
-103 -201 0
104 112 0
-104 -112 0
104 115 0
-104 -115 0
104 133 0
-104 -133 0
105 218 0
-105 -218 0
106 149 0
-106 -149 0
106 154 0
-106 -154 0
106 176 0
-106 -176 0
106 218 0
-106 -218 0
107 113 0
-107 -113 0
107 127 0
-107 -127 0
107 168 0
-107 -168 0
107 177 0
-107 -177 0
107 216 0
-107 -216 0
108 131 0
-108 -131 0
108 145 0
-108 -145 0
108 157 0
-108 -157 0
108 183 0
-108 -183 0
108 191 0
-108 -191 0
108 201 0
-108 -201 0
108 215 0
-108 -215 0
109 126 0
-109 -126 0
109 141 0
-109 -141 0
109 156 0
-109 -156 0
109 157 0
-109 -157 0
109 158 0
-109 -158 0
109 167 0
-109 -167 0
110 141 0
-110 -141 0
110 166 0
-110 -166 0
110 175 0
-110 -175 0
110 198 0
-110 -198 0
110 205 0
-110 -205 0
111 135 0
-111 -135 0
111 164 0
-111 -164 0
112 115 0
-112 -115 0
112 142 0
-112 -142 0
112 161 0
-112 -161 0
113 124 0
-113 -124 0
113 147 0
-113 -147 0
113 196 0
-113 -196 0
113 204 0
-113 -204 0
113 220 0
-113 -220 0
114 126 0
-114 -126 0
114 188 0
-114 -188 0
114 190 0
-114 -190 0
114 205 0
-114 -205 0
114 208 0
-114 -208 0
115 156 0
-115 -156 0
115 190 0
-115 -190 0
116 148 0
-116 -148 0
116 180 0
-116 -180 0
117 169 0
-117 -169 0
117 188 0
-117 -188 0
117 218 0
-117 -218 0
119 134 0
-119 -134 0
119 139 0
-119 -139 0
119 143 0
-119 -143 0
119 156 0
-119 -156 0
119 157 0
-119 -157 0
119 187 0
-119 -187 0
120 125 0
-120 -125 0
120 149 0
-120 -149 0
120 158 0
-120 -158 0
120 171 0
-120 -171 0
120 175 0
-120 -175 0
120 187 0
-120 -187 0
120 202 0
-120 -202 0
120 205 0
-120 -205 0
120 220 0
-120 -220 0
121 197 0
-121 -197 0
121 216 0
-121 -216 0
122 141 0
-122 -141 0
122 188 0
-122 -188 0
122 207 0
-122 -207 0
122 218 0
-122 -218 0
123 131 0
-123 -131 0
123 175 0
-123 -175 0
123 212 0
-123 -212 0
124 137 0
-124 -137 0
124 168 0
-124 -168 0
124 178 0
-124 -178 0
124 183 0
-124 -183 0
124 194 0
-124 -194 0
124 205 0
-124 -205 0
124 216 0
-124 -216 0
125 129 0
-125 -129 0
125 167 0
-125 -167 0
125 175 0
-125 -175 0
125 182 0
-125 -182 0
126 136 0
-126 -136 0
126 182 0
-126 -182 0
126 195 0
-126 -195 0
126 219 0
-126 -219 0
127 129 0
-127 -129 0
127 172 0
-127 -172 0
127 187 0
-127 -187 0
128 191 0
-128 -191 0
129 149 0
-129 -149 0
129 162 0
-129 -162 0
130 147 0
-130 -147 0
130 157 0
-130 -157 0
130 195 0
-130 -195 0
130 209 0
-130 -209 0
131 145 0
-131 -145 0
131 155 0
-131 -155 0
131 158 0
-131 -158 0
131 172 0
-131 -172 0
131 186 0
-131 -186 0
131 198 0
-131 -198 0
131 210 0
-131 -210 0
132 148 0
-132 -148 0
132 166 0
-132 -166 0
133 204 0
-133 -204 0
133 213 0
-133 -213 0
133 216 0
-133 -216 0
134 142 0
-134 -142 0
134 154 0
-134 -154 0
134 167 0
-134 -167 0
134 169 0
-134 -169 0
134 173 0
-134 -173 0
135 161 0
-135 -161 0
135 173 0
-135 -173 0
135 216 0
-135 -216 0
136 147 0
-136 -147 0
136 152 0
-136 -152 0
136 206 0
-136 -206 0
136 211 0
-136 -211 0
137 188 0
-137 -188 0
138 150 0
-138 -150 0
138 188 0
-138 -188 0
139 151 0
-139 -151 0
139 156 0
-139 -156 0
140 171 0
-140 -171 0
140 183 0
-140 -183 0
140 199 0
-140 -199 0
141 152 0
-141 -152 0
141 154 0
-141 -154 0
141 170 0
-141 -170 0
141 178 0
-141 -178 0
141 184 0
-141 -184 0
141 186 0
-141 -186 0
142 143 0
-142 -143 0
142 149 0
-142 -149 0
142 160 0
-142 -160 0
142 164 0
-142 -164 0
142 176 0
-142 -176 0
142 184 0
-142 -184 0
142 200 0
-142 -200 0
142 205 0
-142 -205 0
142 208 0
-142 -208 0
143 148 0
-143 -148 0
143 180 0
-143 -180 0
143 187 0
-143 -187 0
144 145 0
-144 -145 0
144 211 0
-144 -211 0
145 160 0
-145 -160 0
145 168 0
-145 -168 0
146 147 0
-146 -147 0
146 194 0
-146 -194 0
146 204 0
-146 -204 0
146 214 0
-146 -214 0
147 152 0
-147 -152 0
147 153 0
-147 -153 0
147 178 0
-147 -178 0
148 177 0
-148 -177 0
148 197 0
-148 -197 0
149 156 0
-149 -156 0
149 216 0
-149 -216 0
150 163 0
-150 -163 0
150 210 0
-150 -210 0
151 152 0
-151 -152 0
151 162 0
-151 -162 0
151 180 0
-151 -180 0
151 182 0
-151 -182 0
151 217 0
-151 -217 0
151 220 0
-151 -220 0
152 187 0
-152 -187 0
152 219 0
-152 -219 0
154 173 0
-154 -173 0
154 201 0
-154 -201 0
155 162 0
-155 -162 0
155 183 0
-155 -183 0
155 206 0
-155 -206 0
156 169 0
-156 -169 0
156 177 0
-156 -177 0
156 209 0
-156 -209 0
157 163 0
-157 -163 0
157 169 0
-157 -169 0
157 185 0
-157 -185 0
157 198 0
-157 -198 0
157 203 0
-157 -203 0
158 163 0
-158 -163 0
158 167 0
-158 -167 0
158 203 0
-158 -203 0
158 207 0
-158 -207 0
158 210 0
-158 -210 0
158 216 0
-158 -216 0
159 169 0
-159 -169 0
159 180 0
-159 -180 0
159 214 0
-159 -214 0
160 180 0
-160 -180 0
161 165 0
-161 -165 0
161 180 0
-161 -180 0
162 185 0
-162 -185 0
162 210 0
-162 -210 0
162 215 0
-162 -215 0
163 169 0
-163 -169 0
163 182 0
-163 -182 0
164 182 0
-164 -182 0
165 169 0
-165 -169 0
165 178 0
-165 -178 0
166 208 0
-166 -208 0
167 193 0
-167 -193 0
168 189 0
-168 -189 0
169 177 0
-169 -177 0
169 191 0
-169 -191 0
169 192 0
-169 -192 0
169 208 0
-169 -208 0
169 220 0
-169 -220 0
172 174 0
-172 -174 0
173 194 0
-173 -194 0
173 213 0
-173 -213 0
174 215 0
-174 -215 0
174 217 0
-174 -217 0
175 180 0
-175 -180 0
175 191 0
-175 -191 0
175 202 0
-175 -202 0
175 209 0
-175 -209 0
176 209 0
-176 -209 0
176 217 0
-176 -217 0
177 186 0
-177 -186 0
177 191 0
-177 -191 0
177 206 0
-177 -206 0
178 182 0
-178 -182 0
179 188 0
-179 -188 0
179 191 0
-179 -191 0
179 192 0
-179 -192 0
179 199 0
-179 -199 0
179 218 0
-179 -218 0
180 197 0
-180 -197 0
181 186 0
-181 -186 0
182 210 0
-182 -210 0
183 200 0
-183 -200 0
184 217 0
-184 -217 0
184 218 0
-184 -218 0
185 195 0
-185 -195 0
185 197 0
-185 -197 0
185 200 0
-185 -200 0
185 206 0
-185 -206 0
186 192 0
-186 -192 0
186 196 0
-186 -196 0
186 206 0
-186 -206 0
187 195 0
-187 -195 0
187 213 0
-187 -213 0
187 218 0
-187 -218 0
188 199 0
-188 -199 0
188 206 0
-188 -206 0
189 212 0
-189 -212 0
189 213 0
-189 -213 0
189 215 0
-189 -215 0
191 211 0
-191 -211 0
191 217 0
-191 -217 0
192 217 0
-192 -217 0
192 218 0
-192 -218 0
193 197 0
-193 -197 0
194 205 0
-194 -205 0
197 220 0
-197 -220 0
200 218 0
-200 -218 0
201 204 0
-201 -204 0
203 217 0
-203 -217 0
204 208 0
-204 -208 0
205 220 0
-205 -220 0
206 210 0
-206 -210 0
212 214 0
-212 -214 0
