FourierSAT_Github_AIJ/res/fs_1core/s2v220c1800-3.cnf.txt
o 249
o 247
